# Solution for model problem_
# Objective value = 2.8182386047387746e+05
x(0_0) 0
x(0_1) 0
x(0_2) 0
x(0_3) 0
x(0_4) 0
x(0_5) 0
x(0_6) 0
x(0_7) 0
x(0_8) 0
x(0_9) 0
x(0_10) 1
x(1_11) 0
x(1_12) 0
x(1_13) 0
x(1_14) 0
x(1_15) 0
x(1_16) 0
x(1_17) 1
x(1_18) 0
x(1_19) 0
x(1_20) 0
x(1_21) 0
x(1_22) 0
x(1_23) 0
x(1_24) 0
x(1_25) 0
x(1_26) 0
x(2_27) 0
x(2_28) 0
x(2_29) 1
x(2_30) 0
x(2_31) 0
x(2_32) 0
x(2_33) 0
x(2_34) 0
x(2_35) 0
x(2_36) 0
x(2_37) 0
x(2_38) 0
x(2_39) 0
x(3_40) 1
x(3_41) 0
x(3_42) 0
x(3_43) 0
x(3_44) 0
x(3_45) 0
x(3_46) 0
x(3_47) 0
x(3_48) 0
x(3_49) 0
x(3_50) 0
x(3_51) 0
x(3_52) 0
x(3_53) 0
x(3_54) 0
x(3_55) 0
x(3_56) 0
x(3_57) 0
x(4_58) 0
x(4_59) 0
x(4_60) 0
x(4_61) 0
x(4_62) 0
x(4_63) 0
x(4_64) 0
x(4_65) 0
x(4_66) 0
x(4_67) 1
x(4_68) 0
x(4_69) 0
x(4_70) 0
x(5_71) 0
x(5_72) 0
x(5_73) 0
x(5_74) 0
x(5_75) 0
x(5_76) 0
x(5_77) 0
x(5_78) 0
x(5_79) 0
x(5_80) 0
x(5_81) 0
x(5_82) 0
x(5_83) 0
x(5_84) 0
x(5_85) 1
x(5_86) 0
x(5_87) 0
x(5_88) 0
x(6_89) 0
x(6_90) 0
x(6_91) 0
x(6_92) 0
x(6_93) 0
x(6_94) 0
x(6_95) 0
x(6_96) 0
x(6_97) 1
x(6_98) 0
x(6_99) 0
x(6_100) 0
x(7_101) 0
x(7_102) 0
x(7_103) 0
x(7_104) 0
x(7_105) 0
x(7_106) 0
x(7_107) 0
x(7_108) 1
x(7_109) 0
x(7_110) 0
x(7_111) 0
x(7_112) 0
x(7_113) 0
x(8_114) 0
x(8_115) 0
x(8_116) 0
x(8_117) 0
x(8_118) 0
x(8_119) 0
x(8_120) 1
x(8_121) 0
x(8_122) 0
x(8_123) 0
x(8_124) 0
x(9_125) 0
x(9_126) 0
x(9_127) 1
x(9_128) 0
x(9_129) 0
x(9_130) 0
x(9_131) 0
x(9_132) 0
x(9_133) 0
x(9_134) 0
x(9_135) 0
x(9_136) 0
x(9_137) 0
x(9_138) 0
x(9_139) 0
x(9_140) 0
x(9_141) 0
x(9_142) 0
x(9_143) 0
x(9_144) 0
x(10_145) 0
x(10_146) 0
x(10_147) 0
x(10_148) 0
x(10_149) 0
x(10_150) 0
x(10_151) 0
x(10_152) 0
x(10_153) 0
x(10_154) 0
x(10_155) 0
x(10_156) 0
x(10_157) 0
x(10_158) 1
x(10_159) 0
x(10_160) 0
x(10_161) 0
x(11_162) 0
x(11_163) 0
x(11_164) 0
x(11_165) 0
x(11_166) 0
x(11_167) 0
x(11_168) 0
x(11_169) 0
x(11_170) 0
x(11_171) 0
x(11_172) 0
x(11_173) 0
x(11_174) 0
x(11_175) 0
x(11_176) 0
x(11_177) 1
x(11_178) 0
x(12_179) 0
x(12_180) 0
x(12_181) 0
x(12_182) 0
x(12_183) 0
x(12_184) 1
x(12_185) 0
x(12_186) 0
x(12_187) 0
x(12_188) 0
x(12_189) 0
x(12_190) 0
x(12_191) 0
x(12_192) 0
x(12_193) 0
x(12_194) 0
x(12_195) 0
x(13_196) 0
x(13_197) 0
x(13_198) 0
x(13_199) 0
x(13_200) 0
x(13_201) 0
x(13_202) 0
x(13_203) 0
x(13_204) 0
x(13_205) 1
x(13_206) 0
x(14_207) 0
x(14_208) 0
x(14_209) 0
x(14_210) 0
x(14_211) 0
x(14_212) 0
x(14_213) 0
x(14_214) 0
x(14_215) 0
x(14_216) 0
x(14_217) 1
x(14_218) 0
x(14_219) 0
x(14_220) 0
x(14_221) 0
x(14_222) 0
x(15_223) 0
x(15_224) 0
x(15_225) 0
x(15_226) 0
x(15_227) 0
x(15_228) 0
x(15_229) 0
x(15_230) 0
x(15_231) 0
x(15_232) 0
x(15_233) 1
x(15_234) 0
x(15_235) 0
x(15_236) 0
x(15_237) 0
x(15_238) 0
x(15_239) 0
x(15_240) 0
x(15_241) 0
x(16_242) 0
x(16_243) 1
x(16_244) 0
x(16_245) 0
x(16_246) 0
x(16_247) 0
x(16_248) 0
x(16_249) 0
x(16_250) 0
x(16_251) 0
x(17_252) 0
x(17_253) 0
x(17_254) 0
x(17_255) 0
x(17_256) 0
x(17_257) 0
x(17_258) 0
x(17_259) 0
x(17_260) 0
x(17_261) 0
x(17_262) 0
x(17_263) 1
x(17_264) 0
x(17_265) 0
x(17_266) 0
x(17_267) 0
x(18_268) 0
x(18_269) 0
x(18_270) 0
x(18_271) 0
x(18_272) 0
x(18_273) 1
x(18_274) 0
x(18_275) 0
x(18_276) 0
x(18_277) 0
x(18_278) 0
x(18_279) 0
x(18_280) 0
x(19_281) 0
x(19_282) 0
x(19_283) 0
x(19_284) 0
x(19_285) 0
x(19_286) 0
x(19_287) 0
x(19_288) 1
x(19_289) 0
x(19_290) 0
x(19_291) 0
x(19_292) 0
x(19_293) 0
x(19_294) 0
x(19_295) 0
x(19_296) 0
x(19_297) 0
x(20_298) 0
x(20_299) 0
x(20_300) 0
x(20_301) 0
x(20_302) 0
x(20_303) 0
x(20_304) 0
x(20_305) 0
x(20_306) 0
x(20_307) 0
x(20_308) 0
x(20_309) 0
x(20_310) 1
x(20_311) 0
x(20_312) 0
x(20_313) 0
x(20_314) 0
x(21_315) 0
x(21_316) 0
x(21_317) 0
x(21_318) 0
x(21_319) 1
x(21_320) 0
x(21_321) 0
x(21_322) 0
x(21_323) 0
x(21_324) 0
x(21_325) 0
x(21_326) 0
x(21_327) 0
x(22_328) 0
x(22_329) 0
x(22_330) 0
x(22_331) 0
x(22_332) 0
x(22_333) 0
x(22_334) 1
x(22_335) 0
x(22_336) 0
x(22_337) 0
x(22_338) 0
x(22_339) 0
x(22_340) 0
x(22_341) 0
x(23_342) 0
x(23_343) 0
x(23_344) 0
x(23_345) 1
x(23_346) 0
x(23_347) 0
x(23_348) 0
x(23_349) 0
x(23_350) 0
x(23_351) 0
x(23_352) 0
x(23_353) 0
x(23_354) 0
x(23_355) 0
x(23_356) 0
x(23_357) 0
x(23_358) 0
x(24_359) 0
x(24_360) 0
x(24_361) 0
x(24_362) 0
x(24_363) 0
x(24_364) 0
x(24_365) 0
x(24_366) 0
x(24_367) 0
x(24_368) 0
x(24_369) 1
x(24_370) 0
x(24_371) 0
x(25_372) 0
x(25_373) 0
x(25_374) 0
x(25_375) 1
x(25_376) 0
x(25_377) 0
x(25_378) 0
x(25_379) 0
x(25_380) 0
x(25_381) 0
x(25_382) 0
x(25_383) 0
x(26_384) 0
x(26_385) 0
x(26_386) 0
x(26_387) 0
x(26_388) 0
x(26_389) 0
x(26_390) 0
x(26_391) 0
x(26_392) 0
x(26_393) 0
x(26_394) 1
x(26_395) 0
x(26_396) 0
x(26_397) 0
x(26_398) 0
x(26_399) 0
x(26_400) 0
x(27_401) 0
x(27_402) 0
x(27_403) 0
x(27_404) 0
x(27_405) 1
x(27_406) 0
x(27_407) 0
x(27_408) 0
x(27_409) 0
x(27_410) 0
x(27_411) 0
x(27_412) 0
x(27_413) 0
x(27_414) 0
x(27_415) 0
x(27_416) 0
x(27_417) 0
x(28_418) 0
x(28_419) 0
x(28_420) 0
x(28_421) 0
x(28_422) 0
x(28_423) 0
x(28_424) 0
x(28_425) 0
x(28_426) 0
x(28_427) 0
x(28_428) 0
x(28_429) 0
x(28_430) 0
x(28_431) 0
x(28_432) 1
x(28_433) 0
x(28_434) 0
x(28_435) 0
x(28_436) 0
x(28_437) 0
x(29_438) 1
x(29_439) 0
x(29_440) 0
x(29_441) 0
x(29_442) 0
x(29_443) 0
x(29_444) 0
x(29_445) 0
x(29_446) 0
x(29_447) 0
x(29_448) 0
x(29_449) 0
x(29_450) 0
x(29_451) 0
x(29_452) 0
x(29_453) 0
x(29_454) 0
x(29_455) 0
x(30_456) 0
x(30_457) 0
x(30_458) 0
x(30_459) 0
x(30_460) 0
x(30_461) 0
x(30_462) 0
x(30_463) 0
x(30_464) 1
x(30_465) 0
x(30_466) 0
x(30_467) 0
x(30_468) 0
x(30_469) 0
x(30_470) 0
x(30_471) 0
x(30_472) 0
x(31_473) 0
x(31_474) 0
x(31_475) 0
x(31_476) 0
x(31_477) 0
x(31_478) 0
x(31_479) 0
x(31_480) 0
x(31_481) 0
x(31_482) 0
x(31_483) 1
x(31_484) 0
x(31_485) 0
x(32_486) 0
x(32_487) 0
x(32_488) 0
x(32_489) 1
x(32_490) 0
x(32_491) 0
x(32_492) 0
x(32_493) 0
x(32_494) 0
x(32_495) 0
x(32_496) 0
x(32_497) 0
x(32_498) 0
x(32_499) 0
x(32_500) 0
x(32_501) 0
x(32_502) 0
x(32_503) 0
x(32_504) 0
x(33_505) 0
x(33_506) 0
x(33_507) 0
x(33_508) 0
x(33_509) 0
x(33_510) 0
x(33_511) 1
x(33_512) 0
x(33_513) 0
x(33_514) 0
x(33_515) 0
x(33_516) 0
x(33_517) 0
x(33_518) 0
x(33_519) 0
x(34_520) 1
x(34_521) 0
x(34_522) 0
x(34_523) 0
x(34_524) 0
x(34_525) 0
x(34_526) 0
x(34_527) 0
x(34_528) 0
x(34_529) 0
x(34_530) 0
x(34_531) 0
x(34_532) 0
x(35_533) 0
x(35_534) 0
x(35_535) 0
x(35_536) 0
x(35_537) 0
x(35_538) 0
x(35_539) 0
x(35_540) 0
x(35_541) 0
x(35_542) 0
x(35_543) 0
x(35_544) 0
x(35_545) 1
x(35_546) 0
x(35_547) 0
x(35_548) 0
x(35_549) 0
x(35_550) 0
x(35_551) 0
x(36_552) 0
x(36_553) 0
x(36_554) 0
x(36_555) 0
x(36_556) 0
x(36_557) 0
x(36_558) 0
x(36_559) 0
x(36_560) 0
x(36_561) 0
x(36_562) 1
x(36_563) 0
x(36_564) 0
x(37_565) 0
x(37_566) 0
x(37_567) 0
x(37_568) 0
x(37_569) 0
x(37_570) 0
x(37_571) 0
x(37_572) 0
x(37_573) 0
x(37_574) 0
x(37_575) 0
x(37_576) 0
x(37_577) 1
x(37_578) 0
x(37_579) 0
x(37_580) 0
x(37_581) 0
x(38_582) 0
x(38_583) 1
x(38_584) 0
x(38_585) 0
x(38_586) 0
x(38_587) 0
x(38_588) 0
x(38_589) 0
x(38_590) 0
x(38_591) 0
x(38_592) 0
x(38_593) 0
x(38_594) 0
x(38_595) 0
x(38_596) 0
x(38_597) 0
x(39_598) 0
x(39_599) 0
x(39_600) 0
x(39_601) 0
x(39_602) 0
x(39_603) 0
x(39_604) 0
x(39_605) 1
x(39_606) 0
x(39_607) 0
x(39_608) 0
x(39_609) 0
x(39_610) 0
x(40_611) 0
x(40_612) 0
x(40_613) 0
x(40_614) 0
x(40_615) 1
x(40_616) 0
x(40_617) 0
x(40_618) 0
x(40_619) 0
x(40_620) 0
x(40_621) 0
x(40_622) 0
x(40_623) 0
x(40_624) 0
x(40_625) 0
x(40_626) 0
x(40_627) 0
x(40_628) 0
x(41_629) 0
x(41_630) 0
x(41_631) 0
x(41_632) 1
x(41_633) 0
x(41_634) 0
x(41_635) 0
x(41_636) 0
x(41_637) 0
x(41_638) 0
x(41_639) 0
x(41_640) 0
x(41_641) 0
x(42_642) 0
x(42_643) 0
x(42_644) 0
x(42_645) 0
x(42_646) 0
x(42_647) 0
x(42_648) 0
x(42_649) 0
x(42_650) 0
x(42_651) 0
x(42_652) 0
x(42_653) 0
x(42_654) 1
x(42_655) 0
x(42_656) 0
x(42_657) 0
x(42_658) 0
x(42_659) 0
x(43_660) 0
x(43_661) 0
x(43_662) 0
x(43_663) 0
x(43_664) 0
x(43_665) 0
x(43_666) 0
x(43_667) 0
x(43_668) 0
x(43_669) 0
x(43_670) 0
x(43_671) 1
x(43_672) 0
x(43_673) 0
x(43_674) 0
x(43_675) 0
x(43_676) 0
x(43_677) 0
x(43_678) 0
x(43_679) 0
x(44_680) 0
x(44_681) 0
x(44_682) 1
x(44_683) 0
x(44_684) 0
x(44_685) 0
x(44_686) 0
x(44_687) 0
x(44_688) 0
x(44_689) 0
x(44_690) 0
x(45_691) 1
x(45_692) 0
x(45_693) 0
x(45_694) 0
x(45_695) 0
x(45_696) 0
x(45_697) 0
x(45_698) 0
x(45_699) 0
x(45_700) 0
x(45_701) 0
x(45_702) 0
x(46_703) 0
x(46_704) 0
x(46_705) 0
x(46_706) 0
x(46_707) 0
x(46_708) 1
x(46_709) 0
x(46_710) 0
x(46_711) 0
x(46_712) 0
x(46_713) 0
x(46_714) 0
x(47_715) 0
x(47_716) 0
x(47_717) 0
x(47_718) 0
x(47_719) 0
x(47_720) 0
x(47_721) 0
x(47_722) 0
x(47_723) 0
x(47_724) 1
x(47_725) 0
x(47_726) 0
x(47_727) 0
x(47_728) 0
x(47_729) 0
x(48_730) 0
x(48_731) 0
x(48_732) 0
x(48_733) 0
x(48_734) 0
x(48_735) 0
x(48_736) 0
x(48_737) 0
x(48_738) 1
x(48_739) 0
x(49_740) 0
x(49_741) 0
x(49_742) 0
x(49_743) 0
x(49_744) 0
x(49_745) 0
x(49_746) 0
x(49_747) 0
x(49_748) 0
x(49_749) 0
x(49_750) 1
x(49_751) 0
x(50_752) 0
x(50_753) 1
x(50_754) 0
x(50_755) 0
x(50_756) 0
x(50_757) 0
x(50_758) 0
x(50_759) 0
x(50_760) 0
x(50_761) 0
x(50_762) 0
x(50_763) 0
x(51_764) 0
x(51_765) 0
x(51_766) 0
x(51_767) 0
x(51_768) 0
x(51_769) 1
x(51_770) 0
x(51_771) 0
x(51_772) 0
x(51_773) 0
x(51_774) 0
x(51_775) 0
x(51_776) 0
x(51_777) 0
x(51_778) 0
x(51_779) 0
x(51_780) 0
x(52_781) 0
x(52_782) 0
x(52_783) 0
x(52_784) 0
x(52_785) 0
x(52_786) 1
x(52_787) 0
x(52_788) 0
x(52_789) 0
x(52_790) 0
x(52_791) 0
x(52_792) 0
x(52_793) 0
x(52_794) 0
x(52_795) 0
x(52_796) 0
x(52_797) 0
x(52_798) 0
x(52_799) 0
x(53_800) 0
x(53_801) 0
x(53_802) 0
x(53_803) 0
x(53_804) 0
x(53_805) 0
x(53_806) 0
x(53_807) 1
x(53_808) 0
x(53_809) 0
x(53_810) 0
x(53_811) 0
x(53_812) 0
x(53_813) 0
x(53_814) 0
x(54_815) 0
x(54_816) 0
x(54_817) 0
x(54_818) 1
x(54_819) 0
x(54_820) 0
x(54_821) 0
x(54_822) 0
x(54_823) 0
x(54_824) 0
x(54_825) 0
x(54_826) 0
x(54_827) 0
x(54_828) 0
x(54_829) 0
x(54_830) 0
x(54_831) 0
x(54_832) 0
x(54_833) 0
x(55_834) 0
x(55_835) 0
x(55_836) 0
x(55_837) 0
x(55_838) 0
x(55_839) 0
x(55_840) 0
x(55_841) 1
x(55_842) 0
x(55_843) 0
x(55_844) 0
x(55_845) 0
x(55_846) 0
x(55_847) 0
x(55_848) 0
x(55_849) 0
x(55_850) 0
x(56_851) 0
x(56_852) 0
x(56_853) 0
x(56_854) 0
x(56_855) 0
x(56_856) 0
x(56_857) 0
x(56_858) 1
x(56_859) 0
x(56_860) 0
x(56_861) 0
x(57_862) 0
x(57_863) 0
x(57_864) 0
x(57_865) 0
x(57_866) 0
x(57_867) 0
x(57_868) 0
x(57_869) 1
x(57_870) 0
x(57_871) 0
x(57_872) 0
x(57_873) 0
x(57_874) 0
x(57_875) 0
x(57_876) 0
x(57_877) 0
x(57_878) 0
x(58_879) 0
x(58_880) 0
x(58_881) 0
x(58_882) 0
x(58_883) 0
x(58_884) 0
x(58_885) 0
x(58_886) 0
x(58_887) 0
x(58_888) 0
x(58_889) 0
x(58_890) 0
x(58_891) 0
x(58_892) 0
x(58_893) 0
x(58_894) 1
x(58_895) 0
x(58_896) 0
x(58_897) 0
x(59_898) 0
x(59_899) 0
x(59_900) 0
x(59_901) 0
x(59_902) 1
x(59_903) 0
x(59_904) 0
x(59_905) 0
x(59_906) 0
x(59_907) 0
x(59_908) 0
x(59_909) 0
x(59_910) 0
x(59_911) 0
x(59_912) 0
x(59_913) 0
x(59_914) 0
x(59_915) 0
x(59_916) 0
x(59_917) 0
x(60_918) 0
x(60_919) 0
x(60_920) 0
x(60_921) 0
x(60_922) 0
x(60_923) 0
x(60_924) 0
x(60_925) 0
x(60_926) 0
x(60_927) 0
x(60_928) 1
x(61_929) 1
x(61_930) 0
x(61_931) 0
x(61_932) 0
x(61_933) 0
x(61_934) 0
x(61_935) 0
x(61_936) 0
x(61_937) 0
x(61_938) 0
x(61_939) 0
x(61_940) 0
x(61_941) 0
x(62_942) 0
x(62_943) 0
x(62_944) 0
x(62_945) 0
x(62_946) 0
x(62_947) 0
x(62_948) 0
x(62_949) 0
x(62_950) 0
x(62_951) 0
x(62_952) 0
x(62_953) 1
x(63_954) 1
x(63_955) 0
x(63_956) 0
x(63_957) 0
x(63_958) 0
x(63_959) 0
x(63_960) 0
x(63_961) 0
x(63_962) 0
x(63_963) 0
x(63_964) 0
x(64_965) 0
x(64_966) 0
x(64_967) 0
x(64_968) 0
x(64_969) 0
x(64_970) 0
x(64_971) 1
x(64_972) 0
x(64_973) 0
x(64_974) 0
x(64_975) 0
x(64_976) 0
x(64_977) 0
x(64_978) 0
x(64_979) 0
x(65_980) 0
x(65_981) 0
x(65_982) 0
x(65_983) 0
x(65_984) 0
x(65_985) 0
x(65_986) 0
x(65_987) 0
x(65_988) 0
x(65_989) 0
x(65_990) 0
x(65_991) 0
x(65_992) 1
x(65_993) 0
x(65_994) 0
x(66_995) 0
x(66_996) 0
x(66_997) 0
x(66_998) 0
x(66_999) 0
x(66_1000) 0
x(66_1001) 0
x(66_1002) 0
x(66_1003) 0
x(66_1004) 0
x(66_1005) 0
x(66_1006) 0
x(66_1007) 1
x(66_1008) 0
x(66_1009) 0
x(66_1010) 0
x(66_1011) 0
x(67_1012) 0
x(67_1013) 1
x(67_1014) 0
x(67_1015) 0
x(67_1016) 0
x(67_1017) 0
x(67_1018) 0
x(67_1019) 0
x(67_1020) 0
x(67_1021) 0
x(67_1022) 0
x(68_1023) 0
x(68_1024) 0
x(68_1025) 0
x(68_1026) 0
x(68_1027) 0
x(68_1028) 0
x(68_1029) 0
x(68_1030) 1
x(68_1031) 0
x(68_1032) 0
x(69_1033) 0
x(69_1034) 0
x(69_1035) 0
x(69_1036) 0
x(69_1037) 0
x(69_1038) 1
x(69_1039) 0
x(69_1040) 0
x(69_1041) 0
x(69_1042) 0
x(69_1043) 0
x(69_1044) 0
x(69_1045) 0
x(69_1046) 0
x(69_1047) 0
x(69_1048) 0
x(69_1049) 0
x(70_1050) 0
x(70_1051) 0
x(70_1052) 0
x(70_1053) 0
x(70_1054) 0
x(70_1055) 0
x(70_1056) 0
x(70_1057) 0
x(70_1058) 0
x(70_1059) 0
x(70_1060) 0
x(70_1061) 0
x(70_1062) 1
x(70_1063) 0
x(70_1064) 0
x(70_1065) 0
x(71_1066) 0
x(71_1067) 1
x(71_1068) 0
x(71_1069) 0
x(71_1070) 0
x(71_1071) 0
x(71_1072) 0
x(71_1073) 0
x(71_1074) 0
x(71_1075) 0
x(71_1076) 0
x(71_1077) 0
x(71_1078) 0
x(71_1079) 0
x(71_1080) 0
x(71_1081) 0
x(71_1082) 0
x(71_1083) 0
x(71_1084) 0
x(71_1085) 0
x(72_1086) 0
x(72_1087) 0
x(72_1088) 0
x(72_1089) 0
x(72_1090) 0
x(72_1091) 1
x(72_1092) 0
x(72_1093) 0
x(72_1094) 0
x(72_1095) 0
x(72_1096) 0
x(72_1097) 0
x(73_1098) 0
x(73_1099) 1
x(73_1100) 0
x(73_1101) 0
x(73_1102) 0
x(73_1103) 0
x(73_1104) 0
x(73_1105) 0
x(73_1106) 0
x(73_1107) 0
x(74_1108) 0
x(74_1109) 1
x(74_1110) 0
x(74_1111) 0
x(74_1112) 0
x(74_1113) 0
x(74_1114) 0
x(74_1115) 0
x(74_1116) 0
x(74_1117) 0
x(74_1118) 0
x(74_1119) 0
x(74_1120) 0
x(74_1121) 0
x(74_1122) 0
x(74_1123) 0
x(74_1124) 0
x(75_1125) 0
x(75_1126) 0
x(75_1127) 0
x(75_1128) 0
x(75_1129) 0
x(75_1130) 0
x(75_1131) 0
x(75_1132) 0
x(75_1133) 0
x(75_1134) 0
x(75_1135) 0
x(75_1136) 1
x(75_1137) 0
x(75_1138) 0
x(75_1139) 0
x(76_1140) 0
x(76_1141) 0
x(76_1142) 0
x(76_1143) 0
x(76_1144) 0
x(76_1145) 0
x(76_1146) 0
x(76_1147) 0
x(76_1148) 0
x(76_1149) 0
x(76_1150) 0
x(76_1151) 0
x(76_1152) 0
x(76_1153) 0
x(76_1154) 0
x(76_1155) 0
x(76_1156) 0
x(76_1157) 1
x(77_1158) 1
x(77_1159) 0
x(77_1160) 0
x(77_1161) 0
x(77_1162) 0
x(77_1163) 0
x(77_1164) 0
x(77_1165) 0
x(77_1166) 0
x(77_1167) 0
x(77_1168) 0
x(78_1169) 0
x(78_1170) 0
x(78_1171) 0
x(78_1172) 0
x(78_1173) 0
x(78_1174) 0
x(78_1175) 0
x(78_1176) 0
x(78_1177) 0
x(78_1178) 0
x(78_1179) 0
x(78_1180) 0
x(78_1181) 0
x(78_1182) 0
x(78_1183) 0
x(78_1184) 0
x(78_1185) 1
x(78_1186) 0
x(78_1187) 0
x(78_1188) 0
x(79_1189) 0
x(79_1190) 0
x(79_1191) 0
x(79_1192) 0
x(79_1193) 0
x(79_1194) 0
x(79_1195) 0
x(79_1196) 0
x(79_1197) 0
x(79_1198) 0
x(79_1199) 0
x(79_1200) 1
x(79_1201) 0
x(79_1202) 0
x(80_1203) 0
x(80_1204) 0
x(80_1205) 0
x(80_1206) 0
x(80_1207) 0
x(80_1208) 0
x(80_1209) 1
x(80_1210) 0
x(80_1211) 0
x(80_1212) 0
x(81_1213) 0
x(81_1214) 0
x(81_1215) 0
x(81_1216) 1
x(81_1217) 0
x(81_1218) 0
x(81_1219) 0
x(81_1220) 0
x(81_1221) 0
x(81_1222) 0
x(81_1223) 0
x(81_1224) 0
x(81_1225) 0
x(81_1226) 0
x(81_1227) 0
x(81_1228) 0
x(81_1229) 0
x(82_1230) 0
x(82_1231) 0
x(82_1232) 0
x(82_1233) 0
x(82_1234) 0
x(82_1235) 0
x(82_1236) 0
x(82_1237) 0
x(82_1238) 0
x(82_1239) 1
x(82_1240) 0
x(83_1241) 0
x(83_1242) 0
x(83_1243) 0
x(83_1244) 0
x(83_1245) 0
x(83_1246) 0
x(83_1247) 1
x(83_1248) 0
x(83_1249) 0
x(83_1250) 0
x(83_1251) 0
x(84_1252) 0
x(84_1253) 0
x(84_1254) 0
x(84_1255) 0
x(84_1256) 0
x(84_1257) 0
x(84_1258) 0
x(84_1259) 0
x(84_1260) 0
x(84_1261) 1
x(84_1262) 0
x(84_1263) 0
x(84_1264) 0
x(84_1265) 0
x(84_1266) 0
x(84_1267) 0
x(84_1268) 0
x(85_1269) 0
x(85_1270) 0
x(85_1271) 0
x(85_1272) 0
x(85_1273) 0
x(85_1274) 0
x(85_1275) 1
x(85_1276) 0
x(85_1277) 0
x(85_1278) 0
x(85_1279) 0
x(85_1280) 0
x(85_1281) 0
x(86_1282) 0
x(86_1283) 0
x(86_1284) 1
x(86_1285) 0
x(86_1286) 0
x(86_1287) 0
x(86_1288) 0
x(86_1289) 0
x(86_1290) 0
x(86_1291) 0
x(86_1292) 0
x(87_1293) 0
x(87_1294) 0
x(87_1295) 0
x(87_1296) 0
x(87_1297) 1
x(87_1298) 0
x(87_1299) 0
x(87_1300) 0
x(87_1301) 0
x(87_1302) 0
x(87_1303) 0
x(87_1304) 0
x(87_1305) 0
x(87_1306) 0
x(87_1307) 0
x(87_1308) 0
x(87_1309) 0
x(87_1310) 0
x(87_1311) 0
x(88_1312) 0
x(88_1313) 0
x(88_1314) 0
x(88_1315) 1
x(88_1316) 0
x(88_1317) 0
x(88_1318) 0
x(88_1319) 0
x(88_1320) 0
x(88_1321) 0
x(88_1322) 0
x(89_1323) 0
x(89_1324) 0
x(89_1325) 0
x(89_1326) 0
x(89_1327) 0
x(89_1328) 0
x(89_1329) 0
x(89_1330) 0
x(89_1331) 0
x(89_1332) 0
x(89_1333) 0
x(89_1334) 0
x(89_1335) 0
x(89_1336) 0
x(89_1337) 0
x(89_1338) 0
x(89_1339) 1
x(89_1340) 0
x(89_1341) 0
x_1_0 4.5686089721159078e+02
s_1_0 0
z_1_0 9.9543139102788414e-01
x_1_1 4.5556207884242758e+02
s_1_1 0
z_1_1 9.9544437921157569e-01
x_1_2 0
s_1_2 1.4283297947258689e+00
z_1_2 1
x_1_3 0
s_1_3 2.2526046797829622e+00
z_1_3 1
x_1_4 4.5287561357952654e+02
s_1_4 0
z_1_4 9.9547124386420471e-01
x_1_5 0
s_1_5 1.1196996579819825e+00
z_1_5 1
x_1_6 4.9998937742473892e+04
s_1_6 5.0001062257526108e+04
z_1_6 5.0001062257526108e-01
x_1_7 4.9999126683021786e+04
s_1_7 5.0000873316978206e+04
z_1_7 5.0000873316978212e-01
x_1_8 4.9999231885994988e+04
s_1_8 5.0000768114005012e+04
z_1_8 5.0000768114005012e-01
x_1_9 0
s_1_9 1.6984145697206259e+00
z_1_9 1
x_1_10 4.9999263373352507e+04
s_1_10 5.0000736626647486e+04
z_1_10 5.0000736626647491e-01
x_1_11 4.5192516947397962e+02
s_1_11 0
z_1_11 9.9548074830526023e-01
x_1_12 4.5742316752718762e+02
s_1_12 0
z_1_12 9.9542576832472807e-01
x_1_13 4.9998981084898573e+04
s_1_13 5.0001018915101427e+04
z_1_13 5.0001018915101425e-01
x_1_14 4.9999108564445683e+04
s_1_14 5.0000891435554317e+04
z_1_14 5.0000891435554318e-01
x_1_15 4.5659890522623027e+02
s_1_15 0
z_1_15 9.9543401094773776e-01
x_1_16 4.5354241427978559e+02
s_1_16 0
z_1_16 9.9546457585720216e-01
x_1_17 4.5469162181111460e+02
s_1_17 0
z_1_17 9.9545308378188879e-01
x_1_18 4.5778650747938082e+02
s_1_18 0
z_1_18 9.9542213492520626e-01
x_1_19 0
s_1_19 2.0591245923424140e+00
z_1_19 1
x_1_20 4.5291611808887683e+02
s_1_20 0
z_1_20 9.9547083881911125e-01
x_1_21 4.5673160603269935e+02
s_1_21 0
z_1_21 0.995432683939673
x_1_22 4.9998971285038460e+04
s_1_22 5.0001028714961540e+04
z_1_22 5.0001028714961537e-01
x_1_23 49999.1671659756
s_1_23 50000.8328340244
z_1_23 0.500008328340244
x_1_24 4.5487955693062395e+02
s_1_24 0
z_1_24 9.9545120443069379e-01
x_1_25 4.5562828871840611e+02
s_1_25 0
z_1_25 0.995443717112816
x_1_26 4.5343520925007761e+02
s_1_26 0
z_1_26 9.9546564790749925e-01
x_1_27 4.5588972108671442e+02
s_1_27 0
z_1_27 9.9544110278913289e-01
x_1_28 0
s_1_28 9.7363667037279811e-01
z_1_28 1
x_1_29 4.5674351498857141e+02
s_1_29 0
z_1_29 9.9543256485011422e-01
x_1_30 4.5377577160079090e+02
s_1_30 0
z_1_30 9.9546224228399216e-01
x_1_31 4.5645031082723290e+02
s_1_31 0
z_1_31 9.9543549689172761e-01
x_1_32 4.9998977826612580e+04
s_1_32 5.0001022173387420e+04
z_1_32 5.0001022173387422e-01
x_1_33 4.5380565161129925e+02
s_1_33 0
z_1_33 9.9546194348388706e-01
x_1_34 0
s_1_34 1.5926674877409823e+00
z_1_34 1
x_1_35 0
s_1_35 1.3151755295111798e+00
z_1_35 1
x_1_36 4.5713839378091507e+02
s_1_36 0
z_1_36 9.9542861606219080e-01
x_1_37 4.5398462590390409e+02
s_1_37 0
z_1_37 0.995460153740961
x_1_38 0
s_1_38 1.2640088779735379e+00
z_1_38 1
x_1_39 0
s_1_39 1.0965943252231227e+00
z_1_39 1
x_1_40 4.5597912470274605e+02
s_1_40 0
z_1_40 9.9544020875297257e-01
x_1_41 4.5164207402430475e+02
s_1_41 0
z_1_41 0.995483579259757
x_1_42 4.5265795133843494e+02
s_1_42 0
z_1_42 9.9547342048661558e-01
x_1_43 4.9999404186882457e+04
s_1_43 5.0000595813117543e+04
z_1_43 5.0000595813117543e-01
x_1_44 4.5439798634125327e+02
s_1_44 0
z_1_44 9.9545602013658741e-01
x_1_45 4.5410721374824061e+02
s_1_45 0
z_1_45 9.9545892786251755e-01
x_1_46 0
s_1_46 1.9263731215614825e+00
z_1_46 1
x_1_47 4.5743013863638043e+02
s_1_47 0
z_1_47 9.9542569861363617e-01
x_1_48 4.5146474100340856e+02
s_1_48 0
z_1_48 0.995485352589966
x_1_49 4.5452793777780607e+02
s_1_49 0
z_1_49 0.995454720622222
x_1_50 0
s_1_50 1.7027820930670714e+00
z_1_50 1
x_1_51 0
s_1_51 1.8713666924159043e+00
z_1_51 1
x_1_52 4.5254402376618236e+02
s_1_52 0
z_1_52 9.9547455976233812e-01
x_1_53 0
s_1_53 1.0222143350983970e+00
z_1_53 1
x_1_54 4.5151127246767282e+02
s_1_54 0
z_1_54 9.9548488727532325e-01
x_1_55 4.5422794787492603e+02
s_1_55 0
z_1_55 9.9545772052125070e-01
x_1_56 4.5529914750065655e+02
s_1_56 0
z_1_56 9.9544700852499346e-01
x_1_57 0
s_1_57 2.2298382578883320e+00
z_1_57 1
x_1_58 0
s_1_58 6.4889640443834651e-01
z_1_58 1
x_1_59 0
s_1_59 1.5897741755470634e+00
z_1_59 1
x_1_60 0
s_1_60 1.2830232554733811e+00
z_1_60 1
x_1_61 4.5751727352291346e+02
s_1_61 0
z_1_61 9.9542482726477088e-01
x_1_62 4.5550790213620348e+02
s_1_62 0
z_1_62 0.995444920978638
x_1_63 4.5522250679531135e+02
s_1_63 0
z_1_63 9.9544777493204684e-01
x_1_64 0
s_1_64 1.5008856913773343e+00
z_1_64 1
x_1_65 4.5522287296131253e+02
s_1_65 0
z_1_65 9.9544777127038686e-01
x_1_66 4.5536683341767639e+02
s_1_66 0
z_1_66 9.9544633166582319e-01
x_1_67 4.9998938189012377e+04
s_1_67 5.0001061810987623e+04
z_1_67 5.0001061810987624e-01
x_1_68 0
s_1_68 1.3109157621220220e+00
z_1_68 1
x_1_69 0
s_1_69 9.3376843402802479e-01
z_1_69 1
x_1_70 4.9999530486682168e+04
s_1_70 5.0000469513317832e+04
z_1_70 5.0000469513317836e-01
x_1_71 4.5315429915115237e+02
s_1_71 0
z_1_71 9.9546845700848841e-01
x_1_72 0
s_1_72 1.5560428851458710e+00
z_1_72 1
x_1_73 0
s_1_73 1.1067737483244855e+00
z_1_73 1
x_1_74 4.5349012544378638e+02
s_1_74 0
z_1_74 9.9546509874556210e-01
x_1_75 4.5687337441697309e+02
s_1_75 0
z_1_75 9.9543126625583034e-01
x_1_76 4.5362770696185180e+02
s_1_76 0
z_1_76 9.9546372293038154e-01
x_1_77 4.5464835868217051e+02
s_1_77 0
z_1_77 9.9545351641317825e-01
x_1_78 4.5727519617648795e+02
s_1_78 0
z_1_78 9.9542724803823512e-01
x_1_79 4.9998976306913646e+04
s_1_79 5.0001023693086354e+04
z_1_79 5.0001023693086355e-01
x_1_80 4.5179793058894575e+02
s_1_80 0
z_1_80 9.9548202069411051e-01
x_1_81 4.5660259643103927e+02
s_1_81 0
z_1_81 9.9543397403568956e-01
x_1_82 452.365756791085
s_1_82 0
z_1_82 9.9547634243208916e-01
x_1_83 0
s_1_83 1.7595301750116050e+00
z_1_83 1
x_1_84 4.9999235452057488e+04
s_1_84 5.0000764547942512e+04
z_1_84 5.0000764547942511e-01
x_1_85 4.5205340697243810e+02
s_1_85 0
z_1_85 9.9547946593027559e-01
x_1_86 0
s_1_86 1.1923564160169917e+00
z_1_86 1
x_1_87 4.5697030390950385e+02
s_1_87 0
z_1_87 0.995430296960905
x_1_88 452.733906973619
s_1_88 0
z_1_88 9.9547266093026376e-01
x_1_89 4.9998929981174981e+04
s_1_89 5.0001070018825019e+04
z_1_89 5.0001070018825022e-01
x_1_90 452.441239943495
s_1_90 0
z_1_90 0.995475587600565
x_1_91 4.5348812449583784e+02
s_1_91 0
z_1_91 9.9546511875504162e-01
x_1_92 4.5403026977134869e+02
s_1_92 0
z_1_92 9.9545969730228656e-01
x_1_93 0
s_1_93 2.4783862095791847e+00
z_1_93 1
x_1_94 4.5401504967454821e+02
s_1_94 0
z_1_94 9.9545984950325450e-01
x_1_95 4.5367531088367105e+02
s_1_95 0
z_1_95 9.9546324689116328e-01
x_1_96 0
s_1_96 2.2509450501838728e+00
z_1_96 1
x_1_97 0
s_1_97 1.6667952387651894e+00
z_1_97 1
x_1_98 0
s_1_98 1.5469005694321822e+00
z_1_98 1
x_1_99 4.5726903040148318e+02
s_1_99 0
z_1_99 9.9542730969598514e-01
x_1_100 0
s_1_100 1.8358365001477068e+00
z_1_100 1
x_1_101 0
s_1_101 1.4202346132369712e+00
z_1_101 1
x_1_102 0
s_1_102 1.2889017167035490e+00
z_1_102 1
x_1_103 4.5515469811389630e+02
s_1_103 0
z_1_103 0.995448453018861
x_1_104 0
s_1_104 1.9135916453960817e+00
z_1_104 1
x_1_105 455.46314330725
s_1_105 0
z_1_105 9.9544536856692745e-01
x_1_106 4.5576714764721692e+02
s_1_106 0
z_1_106 9.9544232852352788e-01
x_1_107 4.5446131033355778e+02
s_1_107 0
z_1_107 9.9545538689666435e-01
x_1_108 0
s_1_108 1.3222249325554003e+00
z_1_108 1
x_1_109 4.9998984283135651e+04
s_1_109 5.0001015716864349e+04
z_1_109 5.0001015716864350e-01
x_1_110 4.5522452448889089e+02
s_1_110 0
z_1_110 0.995447754755111
x_1_111 0
s_1_111 1.7015859867096879e+00
z_1_111 1
x_1_112 4.5301086263264006e+02
s_1_112 0
z_1_112 9.9546989137367359e-01
x_1_113 4.9998817405204332e+04
s_1_113 5.0001182594795668e+04
z_1_113 5.0001182594795668e-01
x_1_114 0
s_1_114 1.3687884893115552e+00
z_1_114 1
x_1_115 4.5319647661410272e+02
s_1_115 0
z_1_115 0.995468035233859
x_1_116 0
s_1_116 1.0025542536750436e+00
z_1_116 1
x_1_117 4.5559149610204622e+02
s_1_117 0
z_1_117 9.9544408503897952e-01
x_1_118 0
s_1_118 2.3248876288562315e+00
z_1_118 1
x_1_119 0
s_1_119 1.9289513976546004e+00
z_1_119 1
x_1_120 0
s_1_120 6.9883512426167727e-01
z_1_120 1
x_1_121 4.5499040521960706e+02
s_1_121 0
z_1_121 0.995450095947804
x_1_122 0
s_1_122 1.8459796413226286e+00
z_1_122 1
x_1_123 4.5410954481664521e+02
s_1_123 0
z_1_123 9.9545890455183350e-01
x_1_124 0
s_1_124 1.8078832025930751e+00
z_1_124 1
x_1_125 4.9999185479101390e+04
s_1_125 5.0000814520898610e+04
z_1_125 5.0000814520898607e-01
x_1_126 0
s_1_126 1.9300997545942664e+00
z_1_126 1
x_1_127 0
s_1_127 1.4375828202464618e+00
z_1_127 1
x_1_128 4.5359000038984232e+02
s_1_128 0
z_1_128 9.9546409999610153e-01
x_1_129 4.5397043407894671e+02
s_1_129 0
z_1_129 9.9546029565921057e-01
x_1_130 0
s_1_130 1.4481872052274412e+00
z_1_130 1
x_1_131 4.5561574111599475e+02
s_1_131 0
z_1_131 0.99544384258884
x_1_132 454.191031140057
s_1_132 0
z_1_132 9.9545808968859950e-01
x_1_133 4.5703494554199278e+02
s_1_133 0
z_1_133 9.9542965054458010e-01
x_1_134 4.5726551391046087e+02
s_1_134 0
z_1_134 9.9542734486089546e-01
x_1_135 4.5284495617695211e+02
s_1_135 0
z_1_135 9.9547155043823055e-01
x_1_136 4.5519765527779236e+02
s_1_136 0
z_1_136 0.995448023447222
x_1_137 4.5357313971874828e+02
s_1_137 0
z_1_137 9.9546426860281256e-01
x_1_138 0
s_1_138 9.8046519788113073e-01
z_1_138 1
x_1_139 0
s_1_139 1.4589144022029359e+00
z_1_139 1
x_1_140 0
s_1_140 1.8885113722062670e+00
z_1_140 1
x_1_141 4.5590532452426851e+02
s_1_141 0
z_1_141 9.9544094675475736e-01
x_1_142 4.9999467381980925e+04
s_1_142 5.0000532618019082e+04
z_1_142 5.0000532618019078e-01
x_1_143 4.5621220888989046e+02
s_1_143 0
z_1_143 0.995437877911101
x_1_144 0
s_1_144 1.6552348678233102e+00
z_1_144 1
x_1_145 0
s_1_145 1.9298995977587765e+00
z_1_145 1
x_1_146 0
s_1_146 1.3612651501898654e+00
z_1_146 1
x_1_147 4.5705392502805626e+02
s_1_147 0
z_1_147 9.9542946074971939e-01
x_1_148 0
s_1_148 1.5328550646081567e+00
z_1_148 1
x_1_149 4.5309778240695596e+02
s_1_149 0
z_1_149 9.9546902217593047e-01
x_1_150 4.9999053752473847e+04
s_1_150 5.0000946247526153e+04
z_1_150 5.0000946247526157e-01
x_1_151 4.5410626283986494e+02
s_1_151 0
z_1_151 9.9545893737160129e-01
x_1_152 4.5377526979427785e+02
s_1_152 0
z_1_152 9.9546224730205723e-01
x_1_153 451.932809936814
s_1_153 0
z_1_153 9.9548067190063183e-01
x_1_154 4.5634304190520197e+02
s_1_154 0
z_1_154 0.995436569580948
x_1_155 4.5451881905994378e+02
s_1_155 0
z_1_155 9.9545481180940054e-01
x_1_156 0
s_1_156 1.7060532975738170e+00
z_1_156 1
x_1_157 0
s_1_157 8.7661655753618106e-01
z_1_157 1
x_1_158 4.9998830317013540e+04
s_1_158 5.0001169682986460e+04
z_1_158 5.0001169682986457e-01
x_1_159 0
s_1_159 1.4463908308680402e+00
z_1_159 1
x_2_0 2.8096116247387748e+05
